
Gurobi 8.1.0 (linux64, Python) logging started Sat Jan 12 18:52:16 2019


Gurobi 8.1.0 (linux64, Python) logging started Sat Jan 12 18:52:16 2019

Academic license - for non-commercial use only
Academic license - for non-commercial use only
Changed value of parameter LogToConsole to 0
   Prev: 1  Min: 0  Max: 1  Default: 1
Changed value of parameter LogToConsole to 0
   Prev: 1  Min: 0  Max: 1  Default: 1

Gurobi 8.1.0 (linux64, Python) logging started Sat Jan 12 18:52:43 2019


Gurobi 8.1.0 (linux64, Python) logging started Sat Jan 12 18:52:43 2019

Academic license - for non-commercial use only
Academic license - for non-commercial use only
Changed value of parameter LogToConsole to 0
   Prev: 1  Min: 0  Max: 1  Default: 1
Changed value of parameter LogToConsole to 0
   Prev: 1  Min: 0  Max: 1  Default: 1
Optimize a model with 5 rows, 3 columns and 13 nonzeros
Coefficient statistics:
  Matrix range     [2e-02, 2e+00]
  Objective range  [0e+00, 0e+00]
  Bounds range     [0e+00, 0e+00]
  RHS range        [1e-04, 1e-04]
Presolve removed 5 rows and 3 columns
Presolve time: 0.00s
Presolve: All rows and columns removed
Iteration    Objective       Primal Inf.    Dual Inf.      Time
       0    0.0000000e+00   0.000000e+00   2.000000e-06      0s
Extra one simplex iteration after uncrush
       1    0.0000000e+00   0.000000e+00   0.000000e+00      0s

Solved in 1 iterations and 0.00 seconds
Optimal objective  0.000000000e+00

Gurobi 8.1.0 (linux64, Python) logging started Wed Jul 17 12:15:25 2019

Academic license - for non-commercial use only
Changed value of parameter LogToConsole to 0
   Prev: 1  Min: 0  Max: 1  Default: 1
Optimize a model with 7 rows, 6 columns and 27 nonzeros
Coefficient statistics:
  Matrix range     [2e-02, 3e+00]
  Objective range  [0e+00, 0e+00]
  Bounds range     [0e+00, 0e+00]
  RHS range        [1e-04, 1e-04]
Presolve removed 7 rows and 6 columns
Presolve time: 0.01s
Presolve: All rows and columns removed
Iteration    Objective       Primal Inf.    Dual Inf.      Time
       0    0.0000000e+00   0.000000e+00   3.000000e-06      0s
Extra 2 simplex iterations after uncrush
       2    0.0000000e+00   0.000000e+00   0.000000e+00      0s

Solved in 2 iterations and 0.01 seconds
Optimal objective  0.000000000e+00
Optimize a model with 11 rows, 6 columns and 45 nonzeros
Coefficient statistics:
  Matrix range     [2e-02, 6e+00]
  Objective range  [0e+00, 0e+00]
  Bounds range     [0e+00, 0e+00]
  RHS range        [1e-04, 1e-04]
Presolve removed 11 rows and 6 columns
Presolve time: 0.00s
Presolve: All rows and columns removed
Iteration    Objective       Primal Inf.    Dual Inf.      Time
       0    0.0000000e+00   0.000000e+00   3.000000e-06      0s
Extra 2 simplex iterations after uncrush
       2    0.0000000e+00   0.000000e+00   0.000000e+00      0s

Solved in 2 iterations and 0.00 seconds
Optimal objective  0.000000000e+00
Optimize a model with 15 rows, 6 columns and 49 nonzeros
Coefficient statistics:
  Matrix range     [2e-02, 6e+00]
  Objective range  [0e+00, 0e+00]
  Bounds range     [0e+00, 0e+00]
  RHS range        [1e-04, 1e-04]
Presolve removed 15 rows and 6 columns
Presolve time: 0.00s
Presolve: All rows and columns removed
Iteration    Objective       Primal Inf.    Dual Inf.      Time
       0    0.0000000e+00   0.000000e+00   3.000000e-06      0s
Extra 2 simplex iterations after uncrush
       2    0.0000000e+00   0.000000e+00   0.000000e+00      0s

Solved in 2 iterations and 0.00 seconds
Optimal objective  0.000000000e+00
Optimize a model with 19 rows, 6 columns and 57 nonzeros
Coefficient statistics:
  Matrix range     [2e-02, 6e+00]
  Objective range  [0e+00, 0e+00]
  Bounds range     [0e+00, 0e+00]
  RHS range        [1e-04, 1e-04]
Presolve removed 19 rows and 6 columns
Presolve time: 0.00s
Presolve: All rows and columns removed
Iteration    Objective       Primal Inf.    Dual Inf.      Time
       0    0.0000000e+00   0.000000e+00   0.000000e+00      0s

Solved in 0 iterations and 0.00 seconds
Optimal objective  0.000000000e+00

Gurobi 8.1.0 (linux64, Python) logging started Wed Jul 17 12:18:04 2019

Academic license - for non-commercial use only
Changed value of parameter LogToConsole to 0
   Prev: 1  Min: 0  Max: 1  Default: 1
Optimize a model with 7 rows, 6 columns and 27 nonzeros
Coefficient statistics:
  Matrix range     [2e-02, 3e+00]
  Objective range  [0e+00, 0e+00]
  Bounds range     [0e+00, 0e+00]
  RHS range        [1e-04, 1e-04]
Presolve removed 7 rows and 6 columns
Presolve time: 0.00s
Presolve: All rows and columns removed
Iteration    Objective       Primal Inf.    Dual Inf.      Time
       0    0.0000000e+00   0.000000e+00   3.000000e-06      0s
Extra 2 simplex iterations after uncrush
       2    0.0000000e+00   0.000000e+00   0.000000e+00      0s

Solved in 2 iterations and 0.00 seconds
Optimal objective  0.000000000e+00
Optimize a model with 11 rows, 6 columns and 45 nonzeros
Coefficient statistics:
  Matrix range     [2e-02, 6e+00]
  Objective range  [0e+00, 0e+00]
  Bounds range     [0e+00, 0e+00]
  RHS range        [1e-04, 1e-04]
Presolve removed 11 rows and 6 columns
Presolve time: 0.00s
Presolve: All rows and columns removed
Iteration    Objective       Primal Inf.    Dual Inf.      Time
       0    0.0000000e+00   0.000000e+00   3.000000e-06      0s
Extra 2 simplex iterations after uncrush
       2    0.0000000e+00   0.000000e+00   0.000000e+00      0s

Solved in 2 iterations and 0.00 seconds
Optimal objective  0.000000000e+00
Optimize a model with 15 rows, 6 columns and 49 nonzeros
Coefficient statistics:
  Matrix range     [2e-02, 6e+00]
  Objective range  [0e+00, 0e+00]
  Bounds range     [0e+00, 0e+00]
  RHS range        [1e-04, 1e-04]
Presolve removed 15 rows and 6 columns
Presolve time: 0.00s
Presolve: All rows and columns removed
Iteration    Objective       Primal Inf.    Dual Inf.      Time
       0    0.0000000e+00   0.000000e+00   3.000000e-06      0s
Extra 2 simplex iterations after uncrush
       2    0.0000000e+00   0.000000e+00   0.000000e+00      0s

Solved in 2 iterations and 0.00 seconds
Optimal objective  0.000000000e+00
Optimize a model with 19 rows, 6 columns and 57 nonzeros
Coefficient statistics:
  Matrix range     [2e-02, 6e+00]
  Objective range  [0e+00, 0e+00]
  Bounds range     [0e+00, 0e+00]
  RHS range        [1e-04, 1e-04]
Presolve removed 19 rows and 6 columns
Presolve time: 0.00s
Presolve: All rows and columns removed
Iteration    Objective       Primal Inf.    Dual Inf.      Time
       0    0.0000000e+00   0.000000e+00   0.000000e+00      0s

Solved in 0 iterations and 0.00 seconds
Optimal objective  0.000000000e+00
